6271
000000100100000000000111001101
27 21 6 27 23 22 26 21 29 29 23 23 26 22 6 6 21 21 21 21 26 26 22 22 22 23 27 6 27 27 29 23 23 23 22 22 23 21 6 6 27 27 27 23 29 9 26 22 9 6 6 22 9 6 6 6 21 22 23 29 29 27 29 29 27 29 27 27 23 27 